Welcome to the CBC MILP Solver 
Version: 2.10.12 
Build Date: Aug 20 2024 

command line - /opt/homebrew/bin/cbc computational_data/real_data/lp/iris_trial_018_margin.lp seconds 10.0 solve solu computational_data/real_data/solutions/iris_trial_018_margin.sol (default strategy 1)
 CoinLpIO::readLp(): Maximization problem reformulated as minimization
Coin0009I Switching back to maximization to get correct duals etc
seconds was changed from 1e+100 to 10
Continuous objective value is 29.8705 - 0.00 seconds
Cgl0003I 0 fixed, 0 tightened bounds, 88 strengthened rows, 0 substitutions
Cgl0003I 0 fixed, 0 tightened bounds, 83 strengthened rows, 0 substitutions
Cgl0003I 0 fixed, 0 tightened bounds, 71 strengthened rows, 0 substitutions
Cgl0003I 0 fixed, 0 tightened bounds, 59 strengthened rows, 0 substitutions
Cgl0003I 0 fixed, 0 tightened bounds, 39 strengthened rows, 0 substitutions
Cgl0003I 0 fixed, 0 tightened bounds, 28 strengthened rows, 0 substitutions
Cgl0003I 0 fixed, 0 tightened bounds, 13 strengthened rows, 0 substitutions
Cgl0003I 0 fixed, 0 tightened bounds, 5 strengthened rows, 0 substitutions
Cgl0003I 0 fixed, 0 tightened bounds, 4 strengthened rows, 0 substitutions
Cgl0004I processed model has 82 rows, 35 columns (35 integer (35 of which binary)) and 706 elements
Cbc0038I Initial state - 9 integers unsatisfied sum - 2.46667
Cbc0038I Pass   1: suminf.    0.40000 (2) obj. 29.6038 iterations 6
Cbc0038I Pass   2: suminf.    0.40000 (2) obj. 29.6038 iterations 0
Cbc0038I Solution found of 28.0038
Cbc0038I Before mini branch and bound, 26 integers at bound fixed and 0 continuous
Cbc0038I Full problem 82 rows 35 columns, reduced to 16 rows 8 columns
Cbc0038I Mini branch and bound did not improve solution (0.01 seconds)
Cbc0038I Round again with cutoff of 28.1905
Cbc0038I Pass   3: suminf.    0.40000 (2) obj. 29.6038 iterations 0
Cbc0038I Pass   4: suminf.    0.40000 (2) obj. 29.6038 iterations 0
Cbc0038I Pass   5: suminf.    0.18668 (1) obj. 28.1905 iterations 4
Cbc0038I Pass   6: suminf.    0.20000 (1) obj. 28.8038 iterations 4
Cbc0038I Pass   7: suminf.    0.20000 (1) obj. 28.8038 iterations 6
Cbc0038I Pass   8: suminf.    0.20000 (1) obj. 28.8038 iterations 4
Cbc0038I Pass   9: suminf.    0.58668 (2) obj. 28.1905 iterations 11
Cbc0038I Pass  10: suminf.    0.58668 (2) obj. 28.1905 iterations 4
Cbc0038I Pass  11: suminf.    2.90667 (18) obj. 28.7638 iterations 24
Cbc0038I Pass  12: suminf.    0.40000 (2) obj. 28.6038 iterations 5
Cbc0038I Pass  13: suminf.    0.40000 (2) obj. 28.6038 iterations 1
Cbc0038I Pass  14: suminf.    0.18668 (1) obj. 28.1905 iterations 8
Cbc0038I Pass  15: suminf.    0.18668 (1) obj. 28.1905 iterations 0
Cbc0038I Pass  16: suminf.    0.20000 (1) obj. 28.8038 iterations 1
Cbc0038I Pass  17: suminf.    0.20000 (1) obj. 28.8038 iterations 9
Cbc0038I Pass  18: suminf.    0.20000 (1) obj. 28.8038 iterations 5
Cbc0038I Pass  19: suminf.    0.20000 (1) obj. 28.8038 iterations 12
Cbc0038I Pass  20: suminf.    0.20000 (1) obj. 28.8038 iterations 8
Cbc0038I Pass  21: suminf.    0.18668 (1) obj. 28.1905 iterations 3
Cbc0038I Pass  22: suminf.    0.20000 (1) obj. 28.8038 iterations 11
Cbc0038I Pass  23: suminf.    0.20000 (1) obj. 28.8038 iterations 13
Cbc0038I Pass  24: suminf.    0.18668 (1) obj. 28.1905 iterations 9
Cbc0038I Pass  25: suminf.    0.20000 (1) obj. 28.8038 iterations 1
Cbc0038I Pass  26: suminf.    0.20000 (1) obj. 28.8038 iterations 21
Cbc0038I Pass  27: suminf.    0.20000 (1) obj. 28.8038 iterations 9
Cbc0038I Pass  28: suminf.    0.18668 (1) obj. 28.1905 iterations 1
Cbc0038I Pass  29: suminf.    2.51999 (10) obj. 28.1905 iterations 13
Cbc0038I Pass  30: suminf.    0.18668 (1) obj. 28.1905 iterations 8
Cbc0038I Pass  31: suminf.    0.18668 (1) obj. 28.1905 iterations 7
Cbc0038I Pass  32: suminf.    0.18668 (1) obj. 28.1905 iterations 7
Cbc0038I No solution found this major pass
Cbc0038I Before mini branch and bound, 12 integers at bound fixed and 0 continuous
Cbc0038I Full problem 82 rows 35 columns, reduced to 53 rows 23 columns
Cbc0038I Mini branch and bound did not improve solution (0.01 seconds)
Cbc0038I After 0.01 seconds - Feasibility pump exiting with objective of 28.0038 - took 0.00 seconds
Cbc0012I Integer solution of 28.0038 found by feasibility pump after 0 iterations and 0 nodes (0.01 seconds)
Cbc0038I Full problem 82 rows 35 columns, reduced to 16 rows 8 columns
Cbc0031I 4 added rows had average density of 17.75
Cbc0013I At root node, 10 cuts changed objective from 29.870489 to 28.0038 in 1 passes
Cbc0014I Cut generator 0 (Probing) - 0 row cuts average 0.0 elements, 0 column cuts (0 active)  in 0.000 seconds - new frequency is -100
Cbc0014I Cut generator 1 (Gomory) - 3 row cuts average 22.7 elements, 0 column cuts (0 active)  in 0.000 seconds - new frequency is 1
Cbc0014I Cut generator 2 (Knapsack) - 0 row cuts average 0.0 elements, 0 column cuts (0 active)  in 0.000 seconds - new frequency is -100
Cbc0014I Cut generator 3 (Clique) - 0 row cuts average 0.0 elements, 0 column cuts (0 active)  in 0.000 seconds - new frequency is -100
Cbc0014I Cut generator 4 (MixedIntegerRounding2) - 0 row cuts average 0.0 elements, 0 column cuts (0 active)  in 0.000 seconds - new frequency is -100
Cbc0014I Cut generator 5 (FlowCover) - 0 row cuts average 0.0 elements, 0 column cuts (0 active)  in 0.000 seconds - new frequency is -100
Cbc0014I Cut generator 6 (TwoMirCuts) - 4 row cuts average 24.5 elements, 0 column cuts (0 active)  in 0.000 seconds - new frequency is -100
Cbc0014I Cut generator 7 (ZeroHalf) - 3 row cuts average 5.7 elements, 0 column cuts (0 active)  in 0.000 seconds - new frequency is 1
Cbc0001I Search completed - best objective 28.0038, took 0 iterations and 0 nodes (0.01 seconds)
Cbc0035I Maximum depth 0, 0 variables fixed on reduced cost
Cuts at root node changed objective from 29.8705 to 28.0038
Probing was tried 1 times and created 0 cuts of which 0 were active after adding rounds of cuts (0.000 seconds)
Gomory was tried 1 times and created 3 cuts of which 0 were active after adding rounds of cuts (0.000 seconds)
Knapsack was tried 1 times and created 0 cuts of which 0 were active after adding rounds of cuts (0.000 seconds)
Clique was tried 1 times and created 0 cuts of which 0 were active after adding rounds of cuts (0.000 seconds)
MixedIntegerRounding2 was tried 1 times and created 0 cuts of which 0 were active after adding rounds of cuts (0.000 seconds)
FlowCover was tried 1 times and created 0 cuts of which 0 were active after adding rounds of cuts (0.000 seconds)
TwoMirCuts was tried 1 times and created 4 cuts of which 0 were active after adding rounds of cuts (0.000 seconds)
ZeroHalf was tried 1 times and created 3 cuts of which 0 were active after adding rounds of cuts (0.000 seconds)

Result - Optimal solution found

Objective value:                28.00380000
Enumerated nodes:               0
Total iterations:               0
Time (CPU seconds):             0.01
Time (Wallclock seconds):       0.01

Total time (CPU seconds):       0.01   (Wallclock seconds):       0.02

